p td 14 42
2 1
3 1
4 3
4 2
5 4
5 1
6 5
7 5
7 3
7 2
7 4
8 2
8 6
8 5
8 3
9 6
9 1
9 8
9 2
9 4
10 1
10 4
10 2
10 5
11 2
11 8
11 3
12 6
12 10
12 5
13 7
13 9
13 5
13 1
13 8
13 12
14 6
14 1
14 3
14 8
14 11
14 7
